$molecule
 0 1
 C      0.0000000000      0.0000000000      0.0000000000
 O      1.3000000000      0.0000000000      0.0000000000
$end

$rem
   job_type = sp
   basis = def2-tzvppd
   max_scf_cycles = 100
   method = wB97xd
   gen_scfman = True
   scf_algorithm = diis
   xc_grid = 3
   thresh = 14
   s2thresh = 16
   symmetry = False
   sym_ignore = True
   scf_convergence = 8
   scf_final_print = 3
   resp_charges = True
$end
